r = [
0,7,13,4,7,9,1,8,1,3,9,0
];
p = [
0,6,14,11,25,26,4,23,7,8,7,0
];
e = [
0,9,4,18,8,6,18,1,1,13,12,0
];
d = [
0,138,121,135,95,128,105,127,100,113,95,141
];
d_bar = [
0,141,128,141,108,141,107,139,104,117,99,141
];
w = [
0,3,0.571428571,3,0.615384615,0.461538462,9,0.083333333,0.25,3.25,3,0
];
